words_hard_train/7820.qaiger
aag 97 16 0 1 81
2
4
8
12
16
24
40
42
46
50
54
58
68
82
164
172
195
6 3 5
10 6 9
14 10 12
18 10 17
20 19 13
22 15 21
26 23 25
28 18 13
30 29 24
32 28 25
34 31 33
36 35 22
38 27 37
44 41 43
48 44 47
52 48 51
56 52 55
60 57 58
62 56 59
64 61 63
66 39 65
70 32 69
72 33 68
74 71 73
76 74 36
78 75 37
80 77 79
84 63 82
86 62 83
88 85 87
90 81 89
92 67 91
94 11 13
96 95 15
98 53 54
100 99 57
102 96 101
104 45 46
106 105 49
108 2 42
110 109 45
112 17 40
114 3 43
116 112 115
118 110 117
120 107 119
122 2 4
124 123 7
126 121 125
128 106 118
130 127 129
132 7 8
134 133 11
136 49 50
138 137 53
140 135 138
142 130 141
144 134 139
146 143 145
148 103 146
150 38 64
152 149 151
154 97 100
156 152 155
158 92 157
160 80 88
162 159 161
166 163 164
168 71 36
170 169 73
174 170 172
176 171 173
178 175 177
180 178 86
182 166 181
184 179 87
186 185 167
188 183 187
190 162 165
192 190 181
194 189 193
i0 1 x1[1]
i1 1 x1[2]
i2 1 x1[3]
i3 1 x1[4]
i4 1 x1[0]
i5 1 x1[5]
i6 2 y2[0]
i7 2 y2[1]
i8 2 y2[2]
i9 2 y2[3]
i10 2 y2[4]
i11 2 y2[5]
i12 1 x1[6]
i13 2 y2[6]
i14 2 y2[7]
i15 1 x1[7]
o0 bv[0]
c
simplified
  <
    add
      subtract
        1 x1
        1
      invert
        -80
    2 y2
