words_hard_train/7820.qaiger.qdimacs
p cnf 97 244
a 1 2 34 4 6 8 12 86 0
e 3 5 7 9 10 11 13 14 15 16 17 18 19 20 21 22 23 24 25 26 27 28 29 30 31 32 33 35 36 37 38 39 40 41 42 43 44 45 46 47 48 49 50 51 52 53 54 55 56 57 58 59 60 61 62 63 64 65 66 67 68 69 70 71 72 73 74 75 76 77 78 79 80 81 82 83 84 85 87 88 89 90 91 92 93 94 95 96 97 0
1 2 3 0
-1 -3 0
-2 -3 0
-3 4 5 0
3 -5 0
-4 -5 0
-5 -6 7 0
5 -7 0
6 -7 0
-5 8 9 0
5 -9 0
-8 -9 0
9 6 10 0
-9 -10 0
-6 -10 0
7 10 11 0
-7 -11 0
-10 -11 0
11 12 13 0
-11 -13 0
-12 -13 0
-9 6 14 0
9 -14 0
-6 -14 0
14 -12 15 0
-14 -15 0
12 -15 0
-14 12 16 0
14 -16 0
-12 -16 0
15 16 17 0
-15 -17 0
-16 -17 0
17 -11 18 0
-17 -18 0
11 -18 0
13 18 19 0
-13 -19 0
-18 -19 0
20 21 22 0
-20 -22 0
-21 -22 0
-22 23 24 0
22 -24 0
-23 -24 0
-24 25 26 0
24 -26 0
-25 -26 0
-26 27 28 0
26 -28 0
-27 -28 0
28 -29 30 0
-28 -30 0
29 -30 0
-28 29 31 0
28 -31 0
-29 -31 0
30 31 32 0
-30 -32 0
-31 -32 0
19 32 33 0
-19 -33 0
-32 -33 0
-16 34 35 0
16 -35 0
-34 -35 0
16 -34 36 0
-16 -36 0
34 -36 0
35 36 37 0
-35 -37 0
-36 -37 0
-37 -18 38 0
37 -38 0
18 -38 0
37 18 39 0
-37 -39 0
-18 -39 0
38 39 40 0
-38 -40 0
-39 -40 0
31 -41 42 0
-31 -42 0
41 -42 0
-31 41 43 0
31 -43 0
-41 -43 0
42 43 44 0
-42 -44 0
-43 -44 0
40 44 45 0
-40 -45 0
-44 -45 0
33 45 46 0
-33 -46 0
-45 -46 0
5 6 47 0
-5 -47 0
-6 -47 0
47 7 48 0
-47 -48 0
-7 -48 0
26 -27 49 0
-26 -49 0
27 -49 0
49 28 50 0
-49 -50 0
-28 -50 0
-48 50 51 0
48 -51 0
-50 -51 0
22 -23 52 0
-22 -52 0
23 -52 0
52 24 53 0
-52 -53 0
-24 -53 0
-1 -21 54 0
1 -54 0
21 -54 0
54 22 55 0
-54 -55 0
-22 -55 0
8 -20 56 0
-8 -56 0
20 -56 0
1 21 57 0
-1 -57 0
-21 -57 0
-56 57 58 0
56 -58 0
-57 -58 0
-55 58 59 0
55 -59 0
-58 -59 0
53 59 60 0
-53 -60 0
-59 -60 0
-1 -2 61 0
1 -61 0
2 -61 0
61 3 62 0
-61 -62 0
-3 -62 0
60 62 63 0
-60 -63 0
-62 -63 0
-53 -59 64 0
53 -64 0
59 -64 0
63 64 65 0
-63 -65 0
-64 -65 0
3 -4 66 0
-3 -66 0
4 -66 0
66 5 67 0
-66 -67 0
-5 -67 0
24 -25 68 0
-24 -68 0
25 -68 0
68 26 69 0
-68 -69 0
-26 -69 0
67 -69 70 0
-67 -70 0
69 -70 0
-65 70 71 0
65 -71 0
-70 -71 0
-67 69 72 0
67 -72 0
-69 -72 0
71 72 73 0
-71 -73 0
-72 -73 0
51 -73 74 0
-51 -74 0
73 -74 0
-19 -32 75 0
19 -75 0
32 -75 0
74 75 76 0
-74 -76 0
-75 -76 0
48 -50 77 0
-48 -77 0
50 -77 0
-76 77 78 0
76 -78 0
-77 -78 0
-46 78 79 0
46 -79 0
-78 -79 0
-40 -44 80 0
40 -80 0
44 -80 0
79 80 81 0
-79 -81 0
-80 -81 0
81 -82 83 0
-81 -83 0
82 -83 0
35 -18 84 0
-35 -84 0
18 -84 0
84 36 85 0
-84 -85 0
-36 -85 0
-85 -86 87 0
85 -87 0
86 -87 0
85 86 88 0
-85 -88 0
-86 -88 0
87 88 89 0
-87 -89 0
-88 -89 0
-89 -43 90 0
89 -90 0
43 -90 0
-83 90 91 0
83 -91 0
-90 -91 0
89 43 92 0
-89 -92 0
-43 -92 0
92 83 93 0
-92 -93 0
-83 -93 0
91 93 94 0
-91 -94 0
-93 -94 0
-81 82 95 0
81 -95 0
-82 -95 0
-95 90 96 0
95 -96 0
-90 -96 0
94 96 97 0
-94 -97 0
-96 -97 0
-97 0
